5
100
311
40	24
1	5	7	11	7	9	8	4	5	4	17	2	
2	4	5	10	5	7	21	3	7	3	
3	5	7	5	7	4	4	4	8	3	6	2	
4	1	9	3	
5	4	8	4	18	3	17	3	6	3	
6	4	5	4	8	3	6	3	4	2	
7	1	7	12	
8	5	8	6	6	6	13	4	9	4	6	2	
9	3	11	3	15	2	8	2	
10	2	5	7	6	4	
11	5	5	11	4	10	19	4	12	3	8	3	
12	2	8	6	17	3	
13	3	4	3	14	2	11	2	
14	4	7	9	5	5	11	2	6	2	
15	3	6	8	21	3	11	3	
16	4	10	4	8	4	22	3	18	3	
17	5	6	12	6	10	5	10	7	6	17	2	
18	3	6	8	18	4	8	3	
19	3	6	8	6	3	11	2	
20	3	7	5	8	4	8	3	
21	2	8	2	5	2	
22	1	10	5	
23	2	4	4	11	3	
24	5	4	7	17	4	9	4	20	3	6	2	
25	5	9	6	8	6	11	4	6	4	10	3	
26	2	10	5	8	2	
27	1	9	3	
28	1	6	6	
29	3	6	7	6	5	7	2	
30	1	6	5	
31	3	10	6	19	4	7	2	
32	3	9	4	18	3	17	2	
33	2	7	10	7	6	
34	1	6	3	
35	4	7	12	10	6	7	6	5	6	
36	4	5	6	6	4	11	2	6	2	
37	5	7	11	5	11	4	6	10	4	8	4	
38	5	6	11	7	9	10	5	4	5	13	3	
39	4	6	6	18	3	19	2	9	2	
40	5	5	8	9	4	8	4	7	4	7	4	
41	4	6	7	17	4	5	3	17	2	
42	5	9	4	10	3	4	3	16	2	5	2	
43	2	5	10	8	4	
44	4	4	5	12	3	11	3	11	3	
45	4	7	11	4	8	6	4	20	2	
46	4	7	10	6	6	7	5	24	3	
47	4	12	4	23	3	13	3	18	2	
48	5	6	8	6	6	10	4	5	3	6	2	
49	5	4	11	7	6	8	5	4	4	13	3	
50	4	21	4	9	4	7	4	8	2	
51	2	5	8	12	2	
52	4	7	8	6	4	6	3	21	2	
53	1	8	2	
54	1	7	6	
55	4	11	5	24	3	7	3	7	2	
56	2	9	5	19	3	
57	2	7	9	4	3	
58	4	4	10	12	4	7	4	15	3	
59	2	10	4	16	3	
60	1	11	2	
61	4	7	11	16	3	12	3	4	3	
62	1	7	11	
63	2	5	6	23	3	
64	3	6	8	5	3	7	2	
65	4	8	4	12	3	6	3	8	2	
66	1	5	3	
67	1	4	12	
68	4	7	5	17	4	8	4	23	3	
69	5	10	6	7	6	7	4	16	3	6	2	
70	5	8	5	6	5	18	3	11	3	21	2	
71	1	20	3	
72	5	11	6	5	4	19	3	8	3	8	3	
73	3	5	6	10	4	7	3	
74	5	4	10	4	5	18	4	6	4	10	2	
75	1	8	3	
76	4	20	3	6	3	23	2	5	2	
77	5	5	6	6	5	5	3	7	2	5	2	
78	1	8	2	
79	2	8	4	7	4	
80	3	6	5	11	4	13	3	
81	1	6	6	
82	2	6	5	12	2	
83	4	11	5	9	4	23	3	4	3	
84	2	7	10	9	3	
85	2	5	5	4	3	
86	2	5	7	15	4	
87	2	11	4	8	4	
88	5	9	5	5	5	10	4	10	2	4	2	
89	3	7	6	5	6	6	3	
90	4	11	4	5	4	4	4	5	3	
91	3	8	6	6	5	7	2	
92	1	5	3	
93	5	23	4	11	4	11	4	10	4	9	3	
94	4	7	4	7	3	16	2	5	2	
95	5	11	5	20	4	9	4	5	4	8	2	
96	4	5	5	22	3	7	3	18	2	
97	3	8	4	11	2	6	2	
98	2	8	8	6	3	
99	4	8	11	11	4	6	4	6	4	
100	1	10	3	
